53
100
80	5
79	4
78	5
77	2
76	1
75	1
74	2
73	3
72	2
71	1
70	1
69	1
68	3
66	2
64	1
63	1
62	3
61	1
59	1
58	4
57	2
56	2
55	1
54	1
53	2
52	1
51	3
50	1
47	4
46	1
45	2
44	1
43	1
42	2
40	1
39	3
38	4
37	1
36	3
35	1
34	2
33	3
32	2
31	1
30	1
29	2
28	1
27	1
25	1
24	1
23	2
22	1
21	1
